42 1 9
32 1 7
41 1 7
31 1 7
17 1 4
28 2 7
36 2 7
29 2 6
6 2 6
9 2 5
33 4 9
2 1 2
15 5 9
38 5 9
0 2 3
7 4 6
19 2 3
4 6 9
30 6 8
46 6 8
48 3 4
27 5 6
10 6 7
16 7 8
3 8 9
35 4 4
12 6 6
34 6 6
40 7 7
13 8 7
116
195